param set_len = 16;
param target_sum = 8367826;
param values := [0] 1015609 [1] 1713151 [2] 651071 [3] 327787 [4] 1401901 [5] 1943673 [6] 863028 [7] 1005855 [8] 134046 [9] 31108 [10] 1772672 [11] 1748926 [12] 1905183 [13] 1224005 [14] 1816226 [15] 163149 ;
